\ENCODING=ISO-8859-1
\Problem name: kMIS

Maximize
 obj: x1 + x2 + x3 + x4 + x5 + x6 + x7 + x8 + x9 + x10 + x11 + x12 + x13 + x14
      + x15 + x16 + x17 + x18 + x19 + x20
Subject To
 c1:   x21 + x22 + x23 + x24 + x25 + x26 + x27 + x28 + x29 + x30 + x31 + x32
       + x33 + x34 + x35 + x36 + x37 + x38 + x39 + x40  = 5
 c2:   x1 + x21 <= 1
 c3:   x2 + x21 <= 1
 c4:   x4 + x21 <= 1
 c5:   x6 + x21 <= 1
 c6:   x9 + x21 <= 1
 c7:   x10 + x21 <= 1
 c8:   x13 + x21 <= 1
 c9:   x15 + x21 <= 1
 c10:  x16 + x21 <= 1
 c11:  x17 + x21 <= 1
 c12:  x18 + x21 <= 1
 c13:  x20 + x21 <= 1
 c14:  x1 + x22 <= 1
 c15:  x2 + x22 <= 1
 c16:  x4 + x22 <= 1
 c17:  x5 + x22 <= 1
 c18:  x6 + x22 <= 1
 c19:  x7 + x22 <= 1
 c20:  x8 + x22 <= 1
 c21:  x11 + x22 <= 1
 c22:  x12 + x22 <= 1
 c23:  x13 + x22 <= 1
 c24:  x14 + x22 <= 1
 c25:  x16 + x22 <= 1
 c26:  x19 + x22 <= 1
 c27:  x2 + x23 <= 1
 c28:  x4 + x23 <= 1
 c29:  x8 + x23 <= 1
 c30:  x10 + x23 <= 1
 c31:  x11 + x23 <= 1
 c32:  x12 + x23 <= 1
 c33:  x14 + x23 <= 1
 c34:  x15 + x23 <= 1
 c35:  x16 + x23 <= 1
 c36:  x18 + x23 <= 1
 c37:  x1 + x24 <= 1
 c38:  x2 + x24 <= 1
 c39:  x6 + x24 <= 1
 c40:  x7 + x24 <= 1
 c41:  x8 + x24 <= 1
 c42:  x9 + x24 <= 1
 c43:  x11 + x24 <= 1
 c44:  x12 + x24 <= 1
 c45:  x13 + x24 <= 1
 c46:  x15 + x24 <= 1
 c47:  x16 + x24 <= 1
 c48:  x18 + x24 <= 1
 c49:  x19 + x24 <= 1
 c50:  x20 + x24 <= 1
 c51:  x4 + x25 <= 1
 c52:  x5 + x25 <= 1
 c53:  x8 + x25 <= 1
 c54:  x11 + x25 <= 1
 c55:  x12 + x25 <= 1
 c56:  x14 + x25 <= 1
 c57:  x16 + x25 <= 1
 c58:  x18 + x25 <= 1
 c59:  x19 + x25 <= 1
 c60:  x20 + x25 <= 1
 c61:  x1 + x26 <= 1
 c62:  x2 + x26 <= 1
 c63:  x4 + x26 <= 1
 c64:  x5 + x26 <= 1
 c65:  x8 + x26 <= 1
 c66:  x14 + x26 <= 1
 c67:  x16 + x26 <= 1
 c68:  x17 + x26 <= 1
 c69:  x18 + x26 <= 1
 c70:  x3 + x27 <= 1
 c71:  x4 + x27 <= 1
 c72:  x5 + x27 <= 1
 c73:  x6 + x27 <= 1
 c74:  x7 + x27 <= 1
 c75:  x9 + x27 <= 1
 c76:  x12 + x27 <= 1
 c77:  x15 + x27 <= 1
 c78:  x16 + x27 <= 1
 c79:  x18 + x27 <= 1
 c80:  x19 + x27 <= 1
 c81:  x20 + x27 <= 1
 c82:  x1 + x28 <= 1
 c83:  x3 + x28 <= 1
 c84:  x4 + x28 <= 1
 c85:  x7 + x28 <= 1
 c86:  x8 + x28 <= 1
 c87:  x10 + x28 <= 1
 c88:  x15 + x28 <= 1
 c89:  x17 + x28 <= 1
 c90:  x18 + x28 <= 1
 c91:  x19 + x28 <= 1
 c92:  x1 + x29 <= 1
 c93:  x4 + x29 <= 1
 c94:  x5 + x29 <= 1
 c95:  x7 + x29 <= 1
 c96:  x9 + x29 <= 1
 c97:  x11 + x29 <= 1
 c98:  x13 + x29 <= 1
 c99:  x15 + x29 <= 1
 c100: x19 + x29 <= 1
 c101: x1 + x30 <= 1
 c102: x2 + x30 <= 1
 c103: x3 + x30 <= 1
 c104: x7 + x30 <= 1
 c105: x10 + x30 <= 1
 c106: x13 + x30 <= 1
 c107: x15 + x30 <= 1
 c108: x17 + x30 <= 1
 c109: x19 + x30 <= 1
 c110: x20 + x30 <= 1
 c111: x2 + x31 <= 1
 c112: x5 + x31 <= 1
 c113: x6 + x31 <= 1
 c114: x8 + x31 <= 1
 c115: x10 + x31 <= 1
 c116: x12 + x31 <= 1
 c117: x13 + x31 <= 1
 c118: x14 + x31 <= 1
 c119: x16 + x31 <= 1
 c120: x17 + x31 <= 1
 c121: x20 + x31 <= 1
 c122: x2 + x32 <= 1
 c123: x3 + x32 <= 1
 c124: x10 + x32 <= 1
 c125: x12 + x32 <= 1
 c126: x15 + x32 <= 1
 c127: x16 + x32 <= 1
 c128: x17 + x32 <= 1
 c129: x18 + x32 <= 1
 c130: x19 + x32 <= 1
 c131: x2 + x33 <= 1
 c132: x7 + x33 <= 1
 c133: x10 + x33 <= 1
 c134: x12 + x33 <= 1
 c135: x13 + x33 <= 1
 c136: x14 + x33 <= 1
 c137: x16 + x33 <= 1
 c138: x18 + x33 <= 1
 c139: x20 + x33 <= 1
 c140: x1 + x34 <= 1
 c141: x2 + x34 <= 1
 c142: x3 + x34 <= 1
 c143: x6 + x34 <= 1
 c144: x7 + x34 <= 1
 c145: x9 + x34 <= 1
 c146: x18 + x34 <= 1
 c147: x2 + x35 <= 1
 c148: x4 + x35 <= 1
 c149: x5 + x35 <= 1
 c150: x8 + x35 <= 1
 c151: x13 + x35 <= 1
 c152: x17 + x35 <= 1
 c153: x19 + x35 <= 1
 c154: x1 + x36 <= 1
 c155: x2 + x36 <= 1
 c156: x3 + x36 <= 1
 c157: x4 + x36 <= 1
 c158: x5 + x36 <= 1
 c159: x10 + x36 <= 1
 c160: x12 + x36 <= 1
 c161: x16 + x36 <= 1
 c162: x18 + x36 <= 1
 c163: x19 + x36 <= 1
 c164: x1 + x37 <= 1
 c165: x2 + x37 <= 1
 c166: x3 + x37 <= 1
 c167: x7 + x37 <= 1
 c168: x11 + x37 <= 1
 c169: x12 + x37 <= 1
 c170: x13 + x37 <= 1
 c171: x20 + x37 <= 1
 c172: x2 + x38 <= 1
 c173: x3 + x38 <= 1
 c174: x5 + x38 <= 1
 c175: x6 + x38 <= 1
 c176: x7 + x38 <= 1
 c177: x9 + x38 <= 1
 c178: x10 + x38 <= 1
 c179: x13 + x38 <= 1
 c180: x14 + x38 <= 1
 c181: x15 + x38 <= 1
 c182: x16 + x38 <= 1
 c183: x17 + x38 <= 1
 c184: x1 + x39 <= 1
 c185: x2 + x39 <= 1
 c186: x7 + x39 <= 1
 c187: x9 + x39 <= 1
 c188: x11 + x39 <= 1
 c189: x12 + x39 <= 1
 c190: x15 + x39 <= 1
 c191: x17 + x39 <= 1
 c192: x20 + x39 <= 1
 c193: x4 + x40 <= 1
 c194: x5 + x40 <= 1
 c195: x6 + x40 <= 1
 c196: x7 + x40 <= 1
 c197: x8 + x40 <= 1
 c198: x9 + x40 <= 1
 c199: x10 + x40 <= 1
 c200: x14 + x40 <= 1
 c201: x16 + x40 <= 1
 c202: x18 + x40 <= 1
Bounds
 0 <= x1 <= 1
 0 <= x2 <= 1
 0 <= x3 <= 1
 0 <= x4 <= 1
 0 <= x5 <= 1
 0 <= x6 <= 1
 0 <= x7 <= 1
 0 <= x8 <= 1
 0 <= x9 <= 1
 0 <= x10 <= 1
 0 <= x11 <= 1
 0 <= x12 <= 1
 0 <= x13 <= 1
 0 <= x14 <= 1
 0 <= x15 <= 1
 0 <= x16 <= 1
 0 <= x17 <= 1
 0 <= x18 <= 1
 0 <= x19 <= 1
 0 <= x20 <= 1
 0 <= x21 <= 1
 0 <= x22 <= 1
 0 <= x23 <= 1
 0 <= x24 <= 1
 0 <= x25 <= 1
 0 <= x26 <= 1
 0 <= x27 <= 1
 0 <= x28 <= 1
 0 <= x29 <= 1
 0 <= x30 <= 1
 0 <= x31 <= 1
 0 <= x32 <= 1
 0 <= x33 <= 1
 0 <= x34 <= 1
 0 <= x35 <= 1
 0 <= x36 <= 1
 0 <= x37 <= 1
 0 <= x38 <= 1
 0 <= x39 <= 1
 0 <= x40 <= 1
Binaries
 x1  x2  x3  x4  x5  x6  x7  x8  x9  x10  x11  x12  x13  x14  x15  x16  x17 
 x18  x19  x20  x21  x22  x23  x24  x25  x26  x27  x28  x29  x30  x31  x32 
 x33  x34  x35  x36  x37  x38  x39  x40 
End
